54614
40 43 1279
43 3 1096
3 6 385
6 28 404
28 55 487
55 49 711
49 26 560
26 54 967
54 47 491
47 30 944
30 4 380
4 18 606
18 12 768
12 34 1214
34 9 835
9 14 471
14 2 433
2 42 1722
42 33 4807
33 1 7621
1 27 4123
27 31 4460
31 25 299
25 11 545
11 45 436
45 52 722
52 16 739
16 15 556
15 36 679
36 46 402
46 39 214
39 10 941
10 22 117
22 29 544
29 21 516
21 23 176
23 53 388
53 17 938
17 48 415
48 19 897
19 44 1282
44 8 383
8 38 368
38 50 1180
50 20 763
20 24 740
24 35 296
35 5 323
5 32 1016
32 41 362
41 13 686
13 51 644
51 37 590
37 7 517
7 40 1176
